 vasp.5.4.4.18Apr17-6-g9f103f2a35 (build Sep 27 2018 13:01:44) gamma-only

 executed on      LLNL_Quartz_ifc date 2022.11.06  21:50:47

 INCAR:
 POTCAR:    PAW_PBE Si 05Jan2001

 POTCAR:    PAW_PBE Si 05Jan2001
   VRHFIN =Si: s2p2

   TITEL  = PAW_PBE Si 05Jan2001
   POMASS =   28.085; ZVAL   =    4.000    mass and valenz
   ENMAX  =  245.345; ENMIN  =  184.009 eV

 Optimization of the real space projectors (new method)

 maximal supplied QI-value         = 19.84
 optimisation between [QCUT,QGAM] = [ 10.12, 20.44] = [ 28.68,116.96] Ry
 Optimized for a Real-space Cutoff    1.38 Angstroem

   l    n(q)    QCUT    max X(q) W(low)/X(q) W(high)/X(q)  e(spline)
   0      8    10.119   159.560    0.58E-04    0.11E-03    0.54E-07
   0      8    10.119   115.863    0.56E-04    0.11E-03    0.54E-07
   1      8    10.119    88.339    0.22E-03    0.17E-03    0.19E-06
   1      8    10.119    48.592    0.22E-03    0.17E-03    0.18E-06
  PAW_PBE Si 05Jan2001                  :

 POSCAR: Si
  positions in direct lattice
  velocities in cartesian coordinates
 exchange correlation table for  LEXCH =        8
   RHO(1)=    0.500       N(1)  =     2000
   RHO(2)=  100.500       N(2)  =     4000

 VTST: version 3.1, (03/28/14)

 CHAIN: initializing optimizer

 OPT: Using VASP Conjugate-Gradient optimizer
 CHAIN: Read ICHAIN            0

 POSCAR: Si
  positions in direct lattice
  velocities in cartesian coordinates

 ion  position               nearest neighbor table
     1  0.995  0.680  0.247-   213 2.35   620 2.37   377 2.38   497 2.45
     2  0.529  0.674  0.714-   985 2.36   370 2.36   579 2.40   629 2.42
     3  0.722  0.544  0.581-   440 2.40   235 2.48   905 2.51   311 2.60
     4  0.627  0.300  0.615-   610 2.36   277 2.37   613 2.38   507 2.40
     5  0.467  0.463  0.484-   779 2.32   465 2.34   820 2.35   940 2.43
     6  0.321  0.602  0.025-   514 2.36   825 2.47   658 2.55   679 2.56
     7  0.504  0.863  0.974-   846 2.32   958 2.33   359 2.35   439 2.37
     8  0.894  0.823  0.457-   432 2.37   364 2.37   433 2.38   336 2.40
     9  0.027  0.939  0.223-   452 2.30   106 2.35   566 2.37   887 2.39
    10  0.965  0.997  0.986-   980 2.33   263 2.34   894 2.36   609 2.41
    11  0.954  0.866  0.971-   193 2.36   187 2.38   212 2.39   894 2.47
    12  0.899  0.460  0.461-   797 2.34   676 2.37   978 2.43   939 2.50
    13  0.435  0.588  0.417-   465 2.35    34 2.38   428 2.39   165 2.39
    14  0.319  0.098  0.843-   556 2.36   600 2.39   713 2.42   192 2.52
    15  0.802  0.433  0.825-    95 2.36   547 2.42   273 2.44   220 2.46
    16  0.583  0.785  0.287-   438 2.36   822 2.39   716 2.42   266 2.43
    17  0.790  0.629  0.175-   890 2.30   129 2.34   482 2.38   564 2.46   662 3.12
    18  0.206  0.338  0.952-   723 2.36   535 2.40   867 2.42   303 2.42
    19  0.906  0.377  0.186-   350 2.34   727 2.38   831 2.40   794 2.40
    20  0.313  0.469  0.043-   431 2.37   601 2.44   825 2.45   206 2.49
    21  0.923  0.660  0.052-   180 2.34   388 2.41   217 2.43   260 2.47
    22  0.113  0.852  0.259-   106 2.32   135 2.33   888 2.40   147 2.47
    23  0.178  0.091  0.646-    70 2.37   681 2.40   292 2.54    64 2.58
    24  0.379  0.517  0.865-   649 2.38   921 2.43   842 2.46   815 2.58
    25  0.011  0.539  0.689-   567 2.37   608 2.42   634 2.45   174 2.58
    26  0.989  0.352  0.761-   289 2.41   561 2.44   823 2.44   873 2.45
    27  0.469  0.662  0.132-   265 2.31   140 2.39   988 2.39   882 2.43   153 2.80
    28  0.814  0.685  0.338-   962 2.43   203 2.43   591 2.45   319 2.52
    29  0.638  0.119  0.559-   991 2.28   506 2.30   736 2.33   554 2.33
    30  0.991  0.805  0.200-   566 2.30   147 2.35   352 2.38   377 2.39
    31  0.175  0.786  0.515-   849 2.36   758 2.42   859 2.45   494 2.46
    32  0.607  0.681  0.828-   297 2.38   526 2.42   579 2.46    96 2.49
    33  0.618  0.110  0.118-   722 2.29   304 2.34   365 2.36   755 2.38
    34  0.355  0.602  0.444-    13 2.38   965 2.39   401 2.41    71 2.53
    35  0.298  0.222  0.454-   405 2.38   704 2.41   231 2.43   599 2.46
    36  0.568  0.977  0.127-   365 2.32   105 2.34   799 2.36    84 2.45
    37  0.383  0.238  0.733-   378 2.37   944 2.38   108 2.41   520 2.41
    38  0.253  0.971  0.830-   464 2.38   816 2.39   713 2.39   399 2.42
    39  0.787  0.101  0.656-   541 2.39   753 2.44   678 2.45   295 2.52   373 3.07
    40  0.399  0.015  0.052-   752 2.36   895 2.38   911 2.47   945 2.49
    41  0.395  0.258  0.001-   114 2.37   444 2.40   255 2.45   639 2.48
    42  0.372  0.924  0.326-   437 2.27   750 2.30   148 2.33   309 3.02
    43  0.168  0.026  0.415-   885 2.32   847 2.33   913 2.35   163 2.36
    44  0.320  0.678  0.833-   518 2.33   621 2.35   576 2.37   812 2.42
    45  0.045  0.470  0.948-   151 2.36   606 2.38    69 2.39   891 2.42
    46  0.851  0.396  0.708-   883 2.35   654 2.36   873 2.41   273 2.42
    47  0.517  0.277  0.525-   532 2.38   610 2.38   589 2.39   121 2.55
    48  0.241  0.175  0.928-   228 2.37   600 2.47   367 2.48   218 2.66
    49  0.543  0.740  0.916-   958 2.32   427 2.35   768 2.39   415 2.50
    50  0.353  0.177  0.327-   677 2.43   231 2.47   481 2.56   955 2.59   776 2.62
    51  0.048  0.663  0.036-   388 2.35   663 2.35   138 2.36    57 2.45
    52  0.295  0.088  0.068-   752 2.32   764 2.35   562 2.37   137 2.43
    53  0.887  0.726  0.826-   230 2.39   449 2.42   314 2.45   333 2.48
    54  0.997  0.772  0.528-   394 2.34   435 2.40   250 2.41   336 2.54
    55  0.250  0.793  0.403-   270 2.33   279 2.35    78 2.40   849 2.41
    56  0.164  0.886  0.706-   795 2.33   254 2.42   545 2.42   974 2.48
    57  0.070  0.683  0.119-   766 2.32   176 2.44    51 2.45   213 2.47
    58  0.213  0.417  0.333-    63 2.37   653 2.40   131 2.45   272 2.59
    59  0.990  0.425  0.264-   735 2.37   350 2.38   380 2.38   865 2.40
    60  0.835  0.172  0.031-   633 2.34   244 2.42   711 2.45   696 2.54
[...]
   986  0.937  0.176  0.210-   731 2.35   724 2.36   258 2.39   811 2.39
   987  0.535  0.207  0.628-   202 2.38   610 2.41   578 2.47   536 2.47
   988  0.410  0.717  0.163-   717 2.36    27 2.39   363 2.42   317 2.42
   989  0.130  0.112  0.103-   404 2.35   252 2.37   537 2.40   283 2.75
   990  0.307  0.626  0.195-   717 2.41   470 2.42   756 2.43   643 2.49
   991  0.564  0.087  0.543-    29 2.28   834 2.40   536 2.45   778 2.47
   992  0.140  0.859  0.834-   345 2.37   550 2.38   254 2.39   680 2.49
   993  0.638  0.629  0.611-   931 2.36   691 2.42   942 2.46   311 2.62
   994  0.469  0.914  0.232-   517 2.39   750 2.44   959 2.53    84 2.54
   995  0.809  0.484  0.176-   794 2.39   699 2.40   259 2.41   738 2.45
   996  0.814  0.675  0.932-   582 2.37   757 2.40   810 2.42   449 2.43
   997  0.713  0.923  0.762-   290 2.31   515 2.37   769 2.41   840 2.49
   998  0.442  0.195  0.451-   704 2.36   121 2.41   819 2.42   239 2.44
   999  0.525  0.078  0.036-   930 2.34   365 2.34   361 2.40   945 2.41
  1000  0.655  0.344  0.179-   832 2.38   175 2.44   665 2.52   242 2.60

  LATTYP: Found a simple cubic cell.
 ALAT       =    27.8481184349

  Lattice vectors:

 A1 = (  27.8481184349,   0.0000000000,   0.0000000000)
 A2 = (   0.0000000000,  27.8481184349,   0.0000000000)
 A3 = (   0.0000000000,   0.0000000000,  27.8481184349)

Analysis of symmetry for initial positions (statically):
 Subroutine PRICEL returns:
 Original cell was already a primitive cell.

 Routine SETGRP: Setting up the symmetry group for a
 simple cubic supercell.

 Subroutine GETGRP returns: Found  1 space group operations
 (whereof  1 operations were pure point group operations)
 out of a pool of 48 trial point group operations.

The static configuration has the point symmetry C_1 .

Analysis of symmetry for dynamics (positions and initial velocities):
 Subroutine PRICEL returns:
 Original cell was already a primitive cell.

 Routine SETGRP: Setting up the symmetry group for a
 simple cubic supercell.

 Subroutine GETGRP returns: Found  1 space group operations
 (whereof  1 operations were pure point group operations)
 out of a pool of 48 trial point group operations.

The dynamic configuration has the point symmetry C_1 .

 Subroutine INISYM returns: Found  1 space group operations
 (whereof  1 operations are pure point group operations),
 and found     1 'primitive' translations

 KPOINTS: KPOINTS

Automatic generation of k-mesh.
Space group operators:
 irot       det(A)        alpha          n_x          n_y          n_z        tau_x        tau_y        tau_z
    1     1.000000     0.000000     1.000000     0.000000     0.000000     0.000000     0.000000     0.000000

 Subroutine IBZKPT returns following result:

 Found      1 irreducible k-points:

 Following reciprocal coordinates:
            Coordinates               Weight
  0.000000  0.000000  0.000000      1.000000

 Following cartesian coordinates:
            Coordinates               Weight
  0.000000  0.000000  0.000000      1.000000

 SYSTEM =  unknown system
 POSCAR =  Si

 Startparameter for this run:
   NWRITE =      2    write-flag & timer
   PREC   = accura    normal or accurate (medium, high low for compatibility)
   ISTART =      1    job   : 0-new  1-cont  2-samecut
   ICHARG =      0    charge: 1-file 2-atom 10-const
   ISPIN  =      1    spin polarized calculation?
   LNONCOLLINEAR =      F non collinear calculations
   LSORBIT =      F    spin-orbit coupling
   INIWAV =      1    electr: 0-lowe 1-rand  2-diag
   LASPH  =      T    aspherical Exc in radial PAW
   METAGGA=      F    non-selfconsistent MetaGGA calc.

 Electronic Relaxation 1
   ENCUT  =  400.0 eV  29.40 Ry    5.42 a.u.  45.41 45.41 45.41*2*pi/ulx,y,z
   ENINI  =  400.0     initial cutoff
   ENAUG  =  322.1 eV  augmentation charge cutoff
   NELM   =     60;   NELMIN=  4; NELMDL=  0     # of ELM steps
   EDIFF  = 0.5E-06   stopping-criterion for ELM
   LREAL  =      T    real-space projection
   NLSPLINE    = F    spline interpolate recip. space projectors
   LCOMPAT=      F    compatible to vasp.4.4
   GGA_COMPAT  = T    GGA compatible to vasp.4.4-vasp.4.6
   LMAXPAW     = -100 max onsite density
   LMAXMIX     =    2 max onsite mixed and CHGCAR
   VOSKOWN=      0    Vosko Wilk Nusair interpolation
   ROPT   =   -0.00025
 Ionic relaxation
   EDIFFG = -.5E-02   stopping-criterion for IOM
   NSW    =     50    number of steps for IOM
   NBLOCK =      1;   KBLOCK =     50    inner block; outer block
   IBRION =      2    ionic relax: 0-MD 1-quasi-New 2-CG
   NFREE  =      1    steps in history (QN), initial steepest desc. (CG)
   ISIF   =      2    stress and relaxation
   IWAVPR =     11    prediction:  0-non 1-charg 2-wave 3-comb
   ISYM   =      2    0-nonsym 1-usesym 2-fastsym
   LCORR  =      T    Harris-Foulkes like correction to forces

   POTIM  = 0.5000    time-step for ionic-motion
   TEIN   =    0.0    initial temperature
   TEBEG  =    0.0;   TEEND  =   0.0 temperature during run
   SMASS  =  -3.00    Nose mass-parameter (am)
   estimated Nose-frequenzy (Omega)   =  0.10E-29 period in steps =****** mass=  -0.177E-25a.u.
   SCALEE = 1.0000    scale energy and forces
   NPACO  =    256;   APACO  = 16.0  distance and # of slots for P.C.
   PSTRESS=    0.0 pullay stress

[...]
   0.238E+02 -.898E+00 -.631E+01   -.240E+02 0.592E+00 0.512E+01   0.231E+00 0.306E+00 0.120E+01   -.380E-03 -.607E-03 -.279E-03
   0.854E+00 0.202E+02 0.105E+02   -.423E+00 -.188E+02 -.949E+01   -.431E+00 -.140E+01 -.104E+01   -.614E-03 0.226E-02 -.567E-03
   0.152E+02 0.118E+02 -.101E+02   -.142E+02 -.108E+02 0.839E+01   -.100E+01 -.104E+01 0.173E+01   -.323E-02 0.832E-03 -.211E-02
   -.111E+02 -.876E+01 0.118E+02   0.112E+02 0.711E+01 -.127E+02   -.100E+00 0.165E+01 0.913E+00   0.116E-02 0.249E-02 0.200E-02
   0.291E+02 -.114E+02 -.148E+02   -.258E+02 0.105E+02 0.131E+02   -.329E+01 0.869E+00 0.169E+01   0.140E-02 -.168E-02 -.841E-03
   0.158E+02 -.487E+01 -.299E+02   -.151E+02 0.408E+01 0.277E+02   -.668E+00 0.787E+00 0.223E+01   -.969E-03 0.892E-03 -.746E-03
   -.314E+01 0.311E+02 -.381E+02   0.316E+01 -.292E+02 0.368E+02   -.178E-01 -.192E+01 0.132E+01   -.573E-03 -.991E-03 -.126E-02
   0.410E+02 -.917E+01 -.101E+02   -.379E+02 0.900E+01 0.811E+01   -.309E+01 0.168E+00 0.194E+01   0.153E-02 -.653E-04 -.130E-02
   0.110E+02 0.176E+02 -.181E+02   -.107E+02 -.162E+02 0.174E+02   -.363E+00 -.146E+01 0.695E+00   0.375E-04 -.173E-02 0.478E-03
   -.690E+01 0.127E+02 -.186E+02   0.625E+01 -.122E+02 0.188E+02   0.656E+00 -.458E+00 -.145E+00   -.102E-02 0.683E-03 0.146E-02
   -.268E+01 0.251E+02 -.477E+01   0.424E+01 -.231E+02 0.527E+01   -.156E+01 -.200E+01 -.507E+00   -.650E-04 -.547E-03 0.156E-02
   0.130E+02 0.132E+02 -.635E+01   -.131E+02 -.134E+02 0.408E+01   0.116E+00 0.159E+00 0.227E+01   0.498E-03 -.544E-04 0.444E-03
   0.221E+02 -.427E+01 0.613E+01   -.203E+02 0.318E+01 -.544E+01   -.180E+01 0.109E+01 -.690E+00   -.136E-03 -.183E-02 0.886E-03
   -.150E+02 0.225E+02 0.272E+01   0.129E+02 -.232E+02 -.271E+01   0.214E+01 0.724E+00 -.115E-01   -.835E-03 0.422E-03 -.995E-03
   0.257E+01 -.958E+01 0.114E+02   -.248E+01 0.856E+01 -.113E+02   -.810E-01 0.102E+01 -.907E-01   -.116E-02 -.168E-02 -.143E-02
   -.104E+02 0.269E+02 -.482E+01   0.106E+02 -.250E+02 0.479E+01   -.204E+00 -.187E+01 0.308E-01   -.566E-03 0.111E-02 0.104E-03
   0.213E+02 -.758E+01 0.134E+02   -.216E+02 0.669E+01 -.129E+02   0.236E+00 0.890E+00 -.521E+00   -.144E-02 -.968E-03 0.144E-02
   0.900E+01 -.421E+02 -.105E+02   -.849E+01 0.407E+02 0.926E+01   -.515E+00 0.143E+01 0.124E+01   0.188E-02 0.761E-04 -.151E-03
   -.101E+02 0.820E+01 0.758E+01   0.115E+02 -.666E+01 -.804E+01   -.136E+01 -.154E+01 0.460E+00   -.979E-04 -.124E-02 -.138E-02
   0.268E+01 0.178E+02 0.456E+01   -.177E+01 -.157E+02 -.305E+01   -.909E+00 -.214E+01 -.151E+01   -.919E-03 -.173E-02 0.185E-02
   -.788E+00 -.723E+00 0.442E+01   0.913E+00 0.944E+00 -.212E+01   -.126E+00 -.224E+00 -.230E+01   0.171E-02 0.229E-02 0.143E-02
   -.224E+02 0.254E+02 0.239E+01   0.194E+02 -.254E+02 -.302E+01   0.299E+01 -.306E-01 0.637E+00   -.530E-03 -.106E-02 -.106E-02
   -.532E+01 -.111E+02 0.470E+01   0.414E+01 0.107E+02 -.644E+01   0.118E+01 0.356E+00 0.174E+01   -.241E-02 0.266E-02 0.204E-02
   0.201E+02 0.216E+02 0.333E+02   -.198E+02 -.215E+02 -.336E+02   -.326E+00 -.102E+00 0.358E+00   -.107E-02 -.855E-03 0.758E-03
   -.816E+01 0.222E+02 0.456E+01   0.939E+01 -.222E+02 -.426E+01   -.123E+01 -.373E-01 -.309E+00   0.390E-03 0.221E-02 0.186E-02
   -.189E+02 -.224E+01 0.289E+02   0.176E+02 0.960E+00 -.245E+02   0.125E+01 0.128E+01 -.434E+01   0.157E-02 0.228E-02 -.468E-02
   0.106E+01 -.212E+01 0.111E+02   -.600E+00 0.206E+01 -.119E+02   -.462E+00 0.558E-01 0.844E+00   -.246E-02 0.806E-03 -.961E-03
   0.199E+02 0.722E+01 0.310E+01   -.181E+02 -.486E+01 -.225E+01   -.187E+01 -.236E+01 -.844E+00   -.182E-02 0.182E-03 -.157E-03
   0.143E+01 -.114E+02 0.142E+02   0.447E+00 0.993E+01 -.134E+02   -.188E+01 0.144E+01 -.807E+00   -.167E-02 0.240E-02 0.147E-02
   0.852E+01 0.142E+02 -.135E+01   -.736E+01 -.134E+02 0.141E+01   -.117E+01 -.769E+00 -.538E-01   -.122E-02 -.106E-03 -.658E-03
   0.765E+01 0.336E+01 -.226E+02   -.825E+01 -.276E+01 0.220E+02   0.605E+00 -.594E+00 0.564E+00   -.456E-03 -.110E-04 -.445E-03
   0.217E+02 0.495E+01 0.556E+01   -.185E+02 -.321E+01 -.553E+01   -.324E+01 -.174E+01 -.311E-01   0.966E-03 -.333E-02 0.130E-02
[...]
   0.160E+02 0.178E+02 -.157E+00   -.142E+02 -.168E+02 0.717E+00   -.187E+01 -.986E+00 -.561E+00   -.420E-03 -.207E-02 -.373E-03
   0.192E+02 -.119E+02 -.101E+01   -.202E+02 0.110E+02 0.113E+01   0.101E+01 0.888E+00 -.118E+00   -.908E-06 0.147E-02 0.414E-03
   -.971E+01 -.226E+00 0.313E+02   0.107E+02 -.107E+01 -.304E+02   -.969E+00 0.130E+01 -.942E+00   -.264E-02 -.920E-03 0.107E-02
   -.143E+00 0.554E+01 0.284E+02   -.448E+00 -.454E+01 -.272E+02   0.592E+00 -.100E+01 -.118E+01   -.116E-02 0.101E-02 0.628E-03
   0.286E+02 -.632E+01 -.234E+01   -.254E+02 0.637E+01 0.315E+01   -.318E+01 -.454E-01 -.812E+00   -.211E-03 -.366E-03 -.360E-03
   0.925E+01 -.121E+02 -.159E+02   -.750E+01 0.125E+02 0.165E+02   -.175E+01 -.481E+00 -.532E+00   -.200E-02 0.906E-03 0.140E-02
   -.443E+01 -.819E+01 0.270E+02   0.491E+01 0.910E+01 -.260E+02   -.476E+00 -.913E+00 -.967E+00   0.811E-04 0.129E-02 -.136E-02
   0.102E+02 -.370E+01 -.653E+00   -.109E+02 0.205E+01 -.698E+00   0.711E+00 0.165E+01 0.135E+01   0.279E-03 0.653E-03 -.907E-03
   -.834E+01 -.190E+02 -.103E+02   0.837E+01 0.176E+02 0.100E+02   -.284E-01 0.134E+01 0.270E+00   0.766E-03 0.672E-03 0.231E-03
   -.150E+02 0.515E+01 0.431E+01   0.141E+02 -.570E+01 -.496E+01   0.886E+00 0.542E+00 0.652E+00   0.762E-03 0.250E-02 0.213E-02
   0.203E+02 0.912E+01 0.210E+02   -.200E+02 -.968E+01 -.190E+02   -.298E+00 0.554E+00 -.202E+01   0.359E-03 0.660E-03 0.290E-02
   -.310E+01 0.179E+02 -.538E+01   0.237E+01 -.170E+02 0.633E+01   0.731E+00 -.927E+00 -.949E+00   -.195E-03 -.933E-03 -.118E-02
   0.132E+02 -.121E+01 0.376E+01   -.128E+02 0.431E+00 -.402E+01   -.468E+00 0.783E+00 0.263E+00   0.147E-02 -.169E-02 -.523E-03
   -.849E+01 0.416E+01 0.219E+01   0.814E+01 -.236E+01 -.143E+01   0.349E+00 -.180E+01 -.761E+00   0.112E-02 -.114E-02 0.221E-03
   -.885E+01 0.269E+01 -.102E+02   -.139E-11 0.114E-11 -.204E-13   0.885E+01 -.270E+01 0.102E+02   0.589E-02 -.587E-02 -.685E-02

 POSITION                                       TOTAL-FORCE (eV/Angst)
     27.71663     18.94519      6.87107        -0.000177      0.000875      0.000227
     14.74208     18.76280     19.87480         0.000433     -0.000523      0.000268
     20.11475     15.14823     16.17113         0.000364      0.001396      0.000878
     17.45762      8.36457     17.12456         0.000333     -0.000013     -0.000042
     13.01685     12.90318     13.47936         0.000760     -0.000404     -0.001366
      8.93972     16.75277      0.68359         0.000511     -0.000236     -0.001182
     14.03122     24.03202     27.11149        -0.000241     -0.000595      0.001214
     24.89947     22.90916     12.71464        -0.000440     -0.000493     -0.001018
      0.74998     26.14441      6.20363         0.000147      0.001429     -0.000962
     26.86824     27.77031     27.45563         0.000218      0.000583      0.000395
     26.56626     24.12978     27.02966        -0.001094     -0.000895     -0.001184
     25.03504     12.79756     12.82405         0.000894     -0.000576      0.001183
     12.11769     16.38629     11.62258         0.000080      0.000125     -0.000170
      8.88134      2.74040     23.47638         0.000243      0.000062     -0.001066
     22.33602     12.06884     22.98083        -0.000671     -0.000780     -0.000526
     16.24466     21.84757      8.00100        -0.000561      0.000325      0.000621
     22.01210     17.52950      4.87351         0.000391      0.000597     -0.000461
      5.75022      9.40921     26.50818         0.000851      0.000081     -0.000102
     25.23502     10.50031      5.17922        -0.000324      0.000482      0.000732
      8.73024     13.05017      1.19549        -0.000187     -0.000135     -0.000948
     25.69324     18.39078      1.45073         0.002349      0.000453      0.000667
      3.14149     23.74019      7.22478        -0.000253      0.000409     -0.000490
      4.95718      2.53609     17.98314        -0.000074     -0.000698     -0.000634
     10.54543     14.40803     24.10172         0.000933     -0.000040     -0.000122
      0.30081     14.99921     19.17507        -0.001228      0.001564      0.001113
     27.54957      9.79466     21.18591        -0.000465      0.001534      0.001354
     13.04830     18.42740      3.68802        -0.001090      0.000245      0.000645
     22.67774     19.07952      9.40609         0.000445      0.000929     -0.000165
     17.77232      3.32171     15.57395        -0.000788     -0.000107     -0.000439
     27.59706     22.41971      5.57318        -0.000047      0.001055     -0.001216
      4.86853     21.87809     14.32794         0.000530      0.000122      0.000614
     16.90735     18.95333     23.06252        -0.000258     -0.000677     -0.000128
     17.20426      3.05310      3.28534         0.000398     -0.000431     -0.001272
      9.88860     16.75129     12.36871        -0.001282      0.000040      0.000407
      8.30850      6.17680     12.63203        -0.000941     -0.000819     -0.000070
     15.82087     27.21626      3.55008         0.000049     -0.000981     -0.000666
     10.67967      6.62751     20.40090         0.000728      0.000026     -0.000239
      7.04661     27.04234     23.11548         0.001042     -0.000228     -0.000166
     21.90327      2.81465     18.25711         0.000164     -0.001109      0.000958
     11.12344      0.42250      1.46160         0.000082     -0.000191     -0.000644
     10.99412      7.17923      0.01415         0.000005      0.000477     -0.000082
     10.37003     25.73573      9.07750        -0.000503      0.000384      0.000529
      4.67842      0.72281     11.56840         0.000835      0.001073      0.000381
      8.92232     18.87466     23.18646         0.000189     -0.000190     -0.000254
      1.25729     13.08739     26.41093        -0.000032      0.001233      0.001140
     23.69150     11.03864     19.71848         0.000518     -0.000219      0.000220
     14.38387      7.72632     14.61728        -0.000349      0.000229      0.000358
      6.70078      4.86887     25.83778        -0.000207      0.000445     -0.000725
     15.11619     20.60541     25.49926         0.000768     -0.000669     -0.000685
      9.83567      4.92585      9.11052        -0.000383     -0.000559      0.000408
      1.35006     18.46826      0.99426         0.000407      0.000815     -0.000062
      8.22503      2.44327      1.88376        -0.000076      0.000441      0.001719
     24.69959     20.21774     22.99122         0.000533      0.000265      0.001164
     27.77169     21.49317     14.71501        -0.002172      0.000716      0.000301
      6.95218     22.07917     11.23421        -0.000262      0.001087      0.000113
      4.56861     24.66240     19.65339        -0.000156     -0.001054      0.000091
      1.93777     19.01814      3.30763        -0.000243     -0.000195      0.001036
      5.93539     11.62426      9.26866         0.000311     -0.000176     -0.000683
     27.55986     11.83550      7.34859         0.000362      0.000104     -0.000047
     23.24856      4.80219      0.85069         0.000918      0.000677     -0.000496
[...]
     26.09436      4.90945      5.85603        -0.000687     -0.000274     -0.001235
     14.89773      5.76838     17.49397         0.000034      0.000152     -0.000937
     11.42222     19.96158      4.54590        -0.000681      0.001442     -0.000241
      3.63208      3.10670      2.87172         0.000358     -0.000697      0.000335
      8.55630     17.42429      5.44142        -0.000206      0.001363     -0.000064
     15.71974      2.43610     15.12660         0.000258      0.000046      0.000188
      3.89023     23.93249     23.23298        -0.001166      0.000525     -0.001579
     17.77558     17.52849     17.01629         0.000060      0.000019     -0.000801
     13.07098     25.45898      6.45354        -0.000540      0.000467      0.000673
     22.53345     13.46544      4.90448        -0.000580      0.000265      0.000197
     22.66334     18.80541     25.95640         0.001028      0.000153      0.000732
     19.84584     25.70356     21.21046        -0.000826     -0.001628      0.003162
     12.29573      5.43814     12.57320         0.000067     -0.000252     -0.000250
     14.60780      2.16143      1.00740         0.000137     -0.000480     -0.000595
     18.24051      9.58591      4.98341        -0.000263      0.000637     -0.000396
    total drift:                                0.009646     -0.011111     -0.006833

  FREE ENERGIE OF THE ION-ELECTRON SYSTEM (eV)
  free  energy   TOTEN  =     -5226.05067168 eV

  energy  without entropy=    -5226.02648523  energy(sigma->0) =    -5226.03857845

 d Force = 0.1290767E-03[ 0.744E-04, 0.184E-03]  d Energy = 0.1282183E-03 0.858E-06
 d Force =-0.3620967E-01[-0.364E-01,-0.360E-01]  d Ewald  =-0.3621041E-01 0.738E-06

 stress matrix after NEB project (eV)
   -467.71245     24.34138      7.71803
     24.34138   -314.11534     -3.45455
      7.71803     -3.45455   -371.79956
  FORCES: max atom, RMS     0.004985    0.001240
  FORCE total and by dimension    0.039198    0.003966
  Stress total and by dimension  676.007623  467.712452

 reached required accuracy - stopping structural energy minimisation
 writing wavefunctions

 total charge

# of ion       s       p       d       tot
    1        0.758   0.907   0.000   1.665
    2        0.759   0.902   0.000   1.660
    3        0.783   0.800   0.000   1.583
    4        0.761   0.910   0.000   1.672
    5        0.762   0.922   0.000   1.684
    6        0.770   0.828   0.000   1.598
    7        0.760   0.943   0.000   1.703
    8        0.757   0.911   0.000   1.668
    9        0.761   0.926   0.000   1.686
   10        0.759   0.914   0.000   1.672
   11        0.774   0.888   0.000   1.662
   12        0.761   0.875   0.000   1.637
   13        0.759   0.911   0.000   1.669
   14        0.770   0.862   0.000   1.632
   15        0.760   0.868   0.000   1.628
   16        0.761   0.889   0.000   1.649
   17        0.769   0.901   0.000   1.670
   18        0.756   0.895   0.000   1.651
   19        0.757   0.901   0.000   1.658
   20        0.760   0.861   0.000   1.622
   21        0.776   0.875   0.000   1.650
   22        0.758   0.902   0.000   1.660
   23        0.763   0.838   0.000   1.601
   24        0.760   0.848   0.000   1.608
   25        0.762   0.845   0.000   1.607
   26        0.759   0.859   0.000   1.619
   27        0.762   0.911   0.000   1.673
   28        0.771   0.831   0.000   1.602
   29        0.764   0.962   0.000   1.726
   30        0.760   0.929   0.000   1.689
   31        0.761   0.874   0.000   1.635
   32        0.761   0.858   0.000   1.620
   33        0.758   0.941   0.000   1.699
   34        0.761   0.870   0.000   1.631
   35        0.756   0.873   0.000   1.629
   36        0.762   0.916   0.000   1.678
   37        0.755   0.899   0.000   1.654
   38        0.757   0.894   0.000   1.651
   39        0.793   0.818   0.000   1.610
   40        0.759   0.874   0.000   1.633
   41        0.759   0.874   0.000   1.632
   42        0.807   0.854   0.000   1.662
   43        0.766   0.933   0.000   1.698
   44        0.762   0.905   0.000   1.667
   45        0.759   0.897   0.000   1.656
   46        0.762   0.903   0.000   1.665
   47        0.762   0.870   0.000   1.631
   48        0.765   0.828   0.000   1.592
   49        0.761   0.897   0.000   1.659
   50        0.747   0.814   0.000   1.560
   51        0.762   0.908   0.000   1.670
   52        0.767   0.901   0.000   1.668
   53        0.763   0.856   0.000   1.619
   54        0.768   0.868   0.000   1.635
   55        0.760   0.909   0.000   1.669
   56        0.759   0.880   0.000   1.639
   57        0.762   0.871   0.000   1.633
   58        0.798   0.815   0.000   1.613
   59        0.759   0.912   0.000   1.671
   60        0.773   0.855   0.000   1.629
[...]
  986        0.759   0.913   0.000   1.673
  987        0.763   0.860   0.000   1.623
  988        0.764   0.879   0.000   1.643
  989        0.781   0.848   0.000   1.629
  990        0.757   0.858   0.000   1.615
  991        0.764   0.886   0.000   1.650
  992        0.759   0.881   0.000   1.639
  993        0.788   0.833   0.000   1.621
  994        0.765   0.829   0.000   1.595
  995        0.756   0.884   0.000   1.640
  996        0.759   0.890   0.000   1.649
  997        0.768   0.885   0.000   1.653
  998        0.759   0.880   0.000   1.639
  999        0.756   0.920   0.000   1.676
 1000        0.774   0.818   0.000   1.591
tot        763.316 878.346   0.0001641.662